(set-info :smt-lib-version 2.6)
(set-logic QF_NIA)
(set-info :source |
Generated by: Cristina Borralleras, Daniel Larraz, Albert Oliveras, Enric Rodriguez-Carbonell, Albert Rubio
Generated on: 2017-04-27
Generator: VeryMax
Application: Termination proving
Target solver: barcelogic
|)
(set-info :license "https://creativecommons.org/licenses/by/4.0/")
(set-info :category "industrial")
(set-info :status unknown)
(declare-fun Nl4a_178^01 () Int)
(declare-fun Nl4len_181^01 () Int)
(declare-fun Nl4x_12^01 () Int)
(declare-fun Nl4y_11^01 () Int)
(declare-fun Nl4a_178^02 () Int)
(declare-fun Nl4len_181^02 () Int)
(declare-fun Nl4x_12^02 () Int)
(declare-fun Nl4y_11^02 () Int)
(declare-fun lam0n0 () Int)
(declare-fun lam0n1 () Int)
(declare-fun lam0n2 () Int)
(declare-fun lam0n3 () Int)
(declare-fun lam0n4 () Int)
(declare-fun lam0n5 () Int)
(declare-fun Nl4CT1 () Int)
(declare-fun Nl4CT2 () Int)
(declare-fun lam1n0 () Int)
(declare-fun lam1n1 () Int)
(declare-fun lam1n2 () Int)
(declare-fun lam1n3 () Int)
(declare-fun lam1n4 () Int)
(declare-fun lam1n5 () Int)
(declare-fun lam2n0 () Int)
(declare-fun lam2n1 () Int)
(declare-fun lam2n2 () Int)
(declare-fun lam2n3 () Int)
(declare-fun lam2n4 () Int)
(declare-fun lam2n5 () Int)
(declare-fun lam3n0 () Int)
(declare-fun lam3n1 () Int)
(declare-fun lam3n2 () Int)
(declare-fun lam3n3 () Int)
(declare-fun lam3n4 () Int)
(declare-fun lam3n5 () Int)
(declare-fun lam3n6 () Int)
(declare-fun lam4n0 () Int)
(declare-fun lam4n1 () Int)
(declare-fun lam4n2 () Int)
(declare-fun lam4n3 () Int)
(declare-fun lam4n4 () Int)
(declare-fun lam4n5 () Int)
(declare-fun lam4n6 () Int)
(declare-fun lam5n0 () Int)
(declare-fun lam5n1 () Int)
(declare-fun lam5n2 () Int)
(declare-fun lam5n3 () Int)
(declare-fun lam5n4 () Int)
(declare-fun lam5n5 () Int)
(declare-fun lam5n6 () Int)
(declare-fun lam6n0 () Int)
(declare-fun lam6n1 () Int)
(declare-fun lam6n2 () Int)
(declare-fun lam6n3 () Int)
(declare-fun lam6n4 () Int)
(declare-fun lam6n5 () Int)
(declare-fun lam6n23 () Int)
(declare-fun lam6n24 () Int)
(declare-fun lam6n25 () Int)
(declare-fun lam6n6 () Int)
(declare-fun lam6n7 () Int)
(declare-fun lam6n8 () Int)
(declare-fun lam6n9 () Int)
(declare-fun lam6n10 () Int)
(declare-fun lam6n11 () Int)
(declare-fun lam6n12 () Int)
(declare-fun lam6n13 () Int)
(declare-fun lam6n14 () Int)
(declare-fun lam6n15 () Int)
(declare-fun lam6n16 () Int)
(declare-fun lam6n17 () Int)
(declare-fun lam6n18 () Int)
(declare-fun lam6n19 () Int)
(declare-fun lam6n20 () Int)
(declare-fun lam6n21 () Int)
(declare-fun lam6n22 () Int)
(declare-fun lam7n0 () Int)
(declare-fun lam7n1 () Int)
(declare-fun lam7n2 () Int)
(declare-fun lam7n3 () Int)
(declare-fun lam7n4 () Int)
(declare-fun lam7n5 () Int)
(declare-fun lam7n23 () Int)
(declare-fun lam7n24 () Int)
(declare-fun lam7n25 () Int)
(declare-fun lam7n6 () Int)
(declare-fun lam7n7 () Int)
(declare-fun lam7n8 () Int)
(declare-fun lam7n9 () Int)
(declare-fun lam7n10 () Int)
(declare-fun lam7n11 () Int)
(declare-fun lam7n12 () Int)
(declare-fun lam7n13 () Int)
(declare-fun lam7n14 () Int)
(declare-fun lam7n15 () Int)
(declare-fun lam7n16 () Int)
(declare-fun lam7n17 () Int)
(declare-fun lam7n18 () Int)
(declare-fun lam7n19 () Int)
(declare-fun lam7n20 () Int)
(declare-fun lam7n21 () Int)
(declare-fun lam7n22 () Int)
(declare-fun lam8n0 () Int)
(declare-fun lam8n1 () Int)
(declare-fun lam8n2 () Int)
(declare-fun lam8n3 () Int)
(declare-fun lam8n4 () Int)
(declare-fun lam8n5 () Int)
(declare-fun lam8n23 () Int)
(declare-fun lam8n24 () Int)
(declare-fun lam8n25 () Int)
(declare-fun lam8n6 () Int)
(declare-fun lam8n7 () Int)
(declare-fun lam8n8 () Int)
(declare-fun lam8n9 () Int)
(declare-fun lam8n10 () Int)
(declare-fun lam8n11 () Int)
(declare-fun lam8n12 () Int)
(declare-fun lam8n13 () Int)
(declare-fun lam8n14 () Int)
(declare-fun lam8n15 () Int)
(declare-fun lam8n16 () Int)
(declare-fun lam8n17 () Int)
(declare-fun lam8n18 () Int)
(declare-fun lam8n19 () Int)
(declare-fun lam8n20 () Int)
(declare-fun lam8n21 () Int)
(declare-fun lam8n22 () Int)
(declare-fun lam9n0 () Int)
(declare-fun lam9n1 () Int)
(declare-fun lam9n2 () Int)
(declare-fun lam9n3 () Int)
(declare-fun lam9n4 () Int)
(declare-fun lam9n5 () Int)
(declare-fun lam9n23 () Int)
(declare-fun lam9n24 () Int)
(declare-fun lam9n25 () Int)
(declare-fun lam9n6 () Int)
(declare-fun lam9n7 () Int)
(declare-fun lam9n8 () Int)
(declare-fun lam9n9 () Int)
(declare-fun lam9n10 () Int)
(declare-fun lam9n11 () Int)
(declare-fun lam9n12 () Int)
(declare-fun lam9n13 () Int)
(declare-fun lam9n14 () Int)
(declare-fun lam9n15 () Int)
(declare-fun lam9n16 () Int)
(declare-fun lam9n17 () Int)
(declare-fun lam9n18 () Int)
(declare-fun lam9n19 () Int)
(declare-fun lam9n20 () Int)
(declare-fun lam9n21 () Int)
(declare-fun lam9n22 () Int)
(declare-fun lam10n0 () Int)
(declare-fun lam10n1 () Int)
(declare-fun lam10n2 () Int)
(declare-fun lam10n3 () Int)
(declare-fun lam10n4 () Int)
(declare-fun lam10n5 () Int)
(declare-fun lam10n23 () Int)
(declare-fun lam10n24 () Int)
(declare-fun lam10n25 () Int)
(declare-fun lam10n6 () Int)
(declare-fun lam10n7 () Int)
(declare-fun lam10n8 () Int)
(declare-fun lam10n9 () Int)
(declare-fun lam10n10 () Int)
(declare-fun lam10n11 () Int)
(declare-fun lam10n12 () Int)
(declare-fun lam10n13 () Int)
(declare-fun lam10n14 () Int)
(declare-fun lam10n15 () Int)
(declare-fun lam10n16 () Int)
(declare-fun lam10n17 () Int)
(declare-fun lam10n18 () Int)
(declare-fun lam10n19 () Int)
(declare-fun lam10n20 () Int)
(declare-fun lam10n21 () Int)
(declare-fun lam10n22 () Int)
(declare-fun lam11n0 () Int)
(declare-fun lam11n1 () Int)
(declare-fun lam11n2 () Int)
(declare-fun lam11n3 () Int)
(declare-fun lam11n4 () Int)
(declare-fun lam11n5 () Int)
(declare-fun lam11n23 () Int)
(declare-fun lam11n24 () Int)
(declare-fun lam11n25 () Int)
(declare-fun lam11n6 () Int)
(declare-fun lam11n7 () Int)
(declare-fun lam11n8 () Int)
(declare-fun lam11n9 () Int)
(declare-fun lam11n10 () Int)
(declare-fun lam11n11 () Int)
(declare-fun lam11n12 () Int)
(declare-fun lam11n13 () Int)
(declare-fun lam11n14 () Int)
(declare-fun lam11n15 () Int)
(declare-fun lam11n16 () Int)
(declare-fun lam11n17 () Int)
(declare-fun lam11n18 () Int)
(declare-fun lam11n19 () Int)
(declare-fun lam11n20 () Int)
(declare-fun lam11n21 () Int)
(declare-fun lam11n22 () Int)
(declare-fun lam12n0 () Int)
(declare-fun lam12n1 () Int)
(declare-fun lam12n2 () Int)
(declare-fun lam12n3 () Int)
(declare-fun lam12n4 () Int)
(declare-fun lam12n5 () Int)
(declare-fun lam12n23 () Int)
(declare-fun lam12n24 () Int)
(declare-fun lam12n25 () Int)
(declare-fun lam12n6 () Int)
(declare-fun lam12n7 () Int)
(declare-fun lam12n8 () Int)
(declare-fun lam12n9 () Int)
(declare-fun lam12n10 () Int)
(declare-fun lam12n11 () Int)
(declare-fun lam12n12 () Int)
(declare-fun lam12n13 () Int)
(declare-fun lam12n14 () Int)
(declare-fun lam12n15 () Int)
(declare-fun lam12n16 () Int)
(declare-fun lam12n17 () Int)
(declare-fun lam12n18 () Int)
(declare-fun lam12n19 () Int)
(declare-fun lam12n20 () Int)
(declare-fun lam12n21 () Int)
(declare-fun lam12n22 () Int)
(declare-fun lam13n0 () Int)
(declare-fun lam13n1 () Int)
(declare-fun lam13n2 () Int)
(declare-fun lam13n3 () Int)
(declare-fun lam13n4 () Int)
(declare-fun lam13n5 () Int)
(declare-fun lam13n23 () Int)
(declare-fun lam13n24 () Int)
(declare-fun lam13n25 () Int)
(declare-fun lam13n6 () Int)
(declare-fun lam13n7 () Int)
(declare-fun lam13n8 () Int)
(declare-fun lam13n9 () Int)
(declare-fun lam13n10 () Int)
(declare-fun lam13n11 () Int)
(declare-fun lam13n12 () Int)
(declare-fun lam13n13 () Int)
(declare-fun lam13n14 () Int)
(declare-fun lam13n15 () Int)
(declare-fun lam13n16 () Int)
(declare-fun lam13n17 () Int)
(declare-fun lam13n18 () Int)
(declare-fun lam13n19 () Int)
(declare-fun lam13n20 () Int)
(declare-fun lam13n21 () Int)
(declare-fun lam13n22 () Int)
(declare-fun a_178^0 () Int)
(declare-fun k_121^0 () Int)
(declare-fun undef36 () Int)
(declare-fun y_11^0 () Int)
(declare-fun undef11 () Int)
(declare-fun undef81 () Int)
(declare-fun len_181^0 () Int)
(declare-fun a_10^0 () Int)
(declare-fun undef32 () Int)
(declare-fun undef43 () Int)
(declare-fun undef52 () Int)
(declare-fun undef40 () Int)
(declare-fun undef46 () Int)
(declare-fun undef53 () Int)
(declare-fun undef60 () Int)
(declare-fun undef48 () Int)
(declare-fun undef54 () Int)
(declare-fun undef61 () Int)
(declare-fun undef50 () Int)
(declare-fun undef55 () Int)
(declare-fun undef62 () Int)
(declare-fun undef63 () Int)
(declare-fun undef64 () Int)
(declare-fun undef65 () Int)
(declare-fun undef56 () Int)
(declare-fun undef57 () Int)
(declare-fun undef58 () Int)
(declare-fun undef59 () Int)
(declare-fun undef38 () Int)
(declare-fun undef26 () Int)
(declare-fun undef97 () Int)
(declare-fun lam17n0 () Int)
(declare-fun lam17n1 () Int)
(declare-fun lam17n2 () Int)
(declare-fun lam17n3 () Int)
(declare-fun lam17n4 () Int)
(declare-fun lam17n5 () Int)
(declare-fun lam17n6 () Int)
(declare-fun RFN1_CT () Int)
(declare-fun RFN1_len_181^0 () Int)
(declare-fun RFN1_x_12^0 () Int)
(declare-fun RFN1_a_178^0 () Int)
(declare-fun RFN1_y_11^0 () Int)
(declare-fun lam21n0 () Int)
(declare-fun lam21n1 () Int)
(declare-fun lam21n2 () Int)
(declare-fun lam21n3 () Int)
(declare-fun lam21n4 () Int)
(declare-fun lam21n5 () Int)
(declare-fun lam21n6 () Int)
(declare-fun lam21n7 () Int)
(declare-fun lam15n0 () Int)
(declare-fun lam15n1 () Int)
(declare-fun lam15n2 () Int)
(declare-fun lam15n3 () Int)
(declare-fun lam15n4 () Int)
(declare-fun lam15n5 () Int)
(declare-fun lam15n6 () Int)
(declare-fun lam16n0 () Int)
(declare-fun lam16n1 () Int)
(declare-fun lam16n2 () Int)
(declare-fun lam16n3 () Int)
(declare-fun lam16n4 () Int)
(declare-fun lam16n5 () Int)
(declare-fun lam16n6 () Int)
(declare-fun lam19n0 () Int)
(declare-fun lam19n1 () Int)
(declare-fun lam19n2 () Int)
(declare-fun lam19n3 () Int)
(declare-fun lam19n4 () Int)
(declare-fun lam19n5 () Int)
(declare-fun lam19n6 () Int)
(declare-fun lam19n7 () Int)
(declare-fun lam20n0 () Int)
(declare-fun lam20n1 () Int)
(declare-fun lam20n2 () Int)
(declare-fun lam20n3 () Int)
(declare-fun lam20n4 () Int)
(declare-fun lam20n5 () Int)
(declare-fun lam20n6 () Int)
(declare-fun lam20n7 () Int)
(declare-fun lam14n0 () Int)
(declare-fun lam14n1 () Int)
(declare-fun lam14n2 () Int)
(declare-fun lam14n3 () Int)
(declare-fun lam14n4 () Int)
(declare-fun lam14n5 () Int)
(declare-fun lam14n6 () Int)
(declare-fun lam18n0 () Int)
(declare-fun lam18n1 () Int)
(declare-fun lam18n2 () Int)
(declare-fun lam18n3 () Int)
(declare-fun lam18n4 () Int)
(declare-fun lam18n5 () Int)
(declare-fun lam18n6 () Int)
(declare-fun lam18n7 () Int)
(assert ( and ( <= ( - 1 ) Nl4a_178^01 ) ( <= Nl4a_178^01 1 ) ( <= ( - 1 ) Nl4len_181^01 ) ( <= Nl4len_181^01 1 ) ( <= ( - 1 ) Nl4x_12^01 ) ( <= Nl4x_12^01 1 ) ( <= ( - 1 ) Nl4y_11^01 ) ( <= Nl4y_11^01 1 ) ( <= ( - 1 ) Nl4a_178^02 ) ( <= Nl4a_178^02 1 ) ( <= ( - 1 ) Nl4len_181^02 ) ( <= Nl4len_181^02 1 ) ( <= ( - 1 ) Nl4x_12^02 ) ( <= Nl4x_12^02 1 ) ( <= ( - 1 ) Nl4y_11^02 ) ( <= Nl4y_11^02 1 ) ))
(assert ( or ( and ( >= lam0n0 0 ) ( >= lam0n1 0 ) ( >= lam0n2 0 ) ( >= lam0n3 0 ) ( >= lam0n4 0 ) ( >= lam0n5 0 ) ( > ( + ( * 1 lam0n1 ) ( * 1 lam0n2 ) ( * 2 lam0n3 ) ( * Nl4CT1 lam0n4 ) ( * Nl4CT2 lam0n5 ) ( - 1 ) ) 0 ) ( = ( + ( * ( - 1 ) lam0n0 ) ( * Nl4a_178^01 lam0n4 ) ( * Nl4a_178^02 lam0n5 ) ) 0 ) ( = ( + ( * ( - 1 ) lam0n1 ) ( * ( - 1 ) lam0n3 ) ( * Nl4len_181^01 lam0n4 ) ( * Nl4len_181^02 lam0n5 ) ) 0 ) ( = ( + ( * ( - 1 ) lam0n2 ) ( * ( - 1 ) lam0n3 ) ( * Nl4x_12^01 lam0n4 ) ( * Nl4x_12^02 lam0n5 ) ) 0 ) ( = ( + ( * 1 lam0n2 ) ( * 1 lam0n3 ) ( * Nl4y_11^01 lam0n4 ) ( * Nl4y_11^02 lam0n5 ) ) 0 ) ) ( and ( >= lam1n0 0 ) ( >= lam1n1 0 ) ( >= lam1n2 0 ) ( >= lam1n3 0 ) ( >= lam1n4 0 ) ( >= lam1n5 0 ) ( > ( + ( * 1 lam1n1 ) ( * 1 lam1n2 ) ( * 2 lam1n3 ) ( * Nl4CT1 lam1n4 ) ( * Nl4CT2 lam1n5 ) ( - 1 ( + ( + Nl4CT1 ( * Nl4len_181^01 1 ) ) ( * Nl4x_12^01 0 ) ) ) ) 0 ) ( = ( + ( * ( - 1 ) lam1n0 ) ( * Nl4a_178^01 lam1n4 ) ( * Nl4a_178^02 lam1n5 ) ( - ( + 0 Nl4a_178^01 ) ) ) 0 ) ( = ( + ( * ( - 1 ) lam1n1 ) ( * ( - 1 ) lam1n3 ) ( * Nl4len_181^01 lam1n4 ) ( * Nl4len_181^02 lam1n5 ) ( - ( + 0 ( * Nl4len_181^01 1 ) ) ) ) 0 ) ( = ( + ( * ( - 1 ) lam1n2 ) ( * ( - 1 ) lam1n3 ) ( * Nl4x_12^01 lam1n4 ) ( * Nl4x_12^02 lam1n5 ) ) 0 ) ( = ( + ( * 1 lam1n2 ) ( * 1 lam1n3 ) ( * Nl4y_11^01 lam1n4 ) ( * Nl4y_11^02 lam1n5 ) ( - ( + 0 Nl4y_11^01 ) ) ) 0 ) ( = ( - ( + 0 ( * Nl4x_12^01 1 ) ) ) 0 ) ) ))
(assert ( or ( and ( >= lam0n0 0 ) ( >= lam0n1 0 ) ( >= lam0n2 0 ) ( >= lam0n3 0 ) ( >= lam0n4 0 ) ( >= lam0n5 0 ) ( > ( + ( * 1 lam0n1 ) ( * 1 lam0n2 ) ( * 2 lam0n3 ) ( * Nl4CT1 lam0n4 ) ( * Nl4CT2 lam0n5 ) ( - 1 ) ) 0 ) ( = ( + ( * ( - 1 ) lam0n0 ) ( * Nl4a_178^01 lam0n4 ) ( * Nl4a_178^02 lam0n5 ) ) 0 ) ( = ( + ( * ( - 1 ) lam0n1 ) ( * ( - 1 ) lam0n3 ) ( * Nl4len_181^01 lam0n4 ) ( * Nl4len_181^02 lam0n5 ) ) 0 ) ( = ( + ( * ( - 1 ) lam0n2 ) ( * ( - 1 ) lam0n3 ) ( * Nl4x_12^01 lam0n4 ) ( * Nl4x_12^02 lam0n5 ) ) 0 ) ( = ( + ( * 1 lam0n2 ) ( * 1 lam0n3 ) ( * Nl4y_11^01 lam0n4 ) ( * Nl4y_11^02 lam0n5 ) ) 0 ) ) ( and ( >= lam2n0 0 ) ( >= lam2n1 0 ) ( >= lam2n2 0 ) ( >= lam2n3 0 ) ( >= lam2n4 0 ) ( >= lam2n5 0 ) ( > ( + ( * 1 lam2n1 ) ( * 1 lam2n2 ) ( * 2 lam2n3 ) ( * Nl4CT1 lam2n4 ) ( * Nl4CT2 lam2n5 ) ( - 1 ( + ( + Nl4CT2 ( * Nl4len_181^02 1 ) ) ( * Nl4x_12^02 0 ) ) ) ) 0 ) ( = ( + ( * ( - 1 ) lam2n0 ) ( * Nl4a_178^01 lam2n4 ) ( * Nl4a_178^02 lam2n5 ) ( - ( + 0 Nl4a_178^02 ) ) ) 0 ) ( = ( + ( * ( - 1 ) lam2n1 ) ( * ( - 1 ) lam2n3 ) ( * Nl4len_181^01 lam2n4 ) ( * Nl4len_181^02 lam2n5 ) ( - ( + 0 ( * Nl4len_181^02 1 ) ) ) ) 0 ) ( = ( + ( * ( - 1 ) lam2n2 ) ( * ( - 1 ) lam2n3 ) ( * Nl4x_12^01 lam2n4 ) ( * Nl4x_12^02 lam2n5 ) ) 0 ) ( = ( + ( * 1 lam2n2 ) ( * 1 lam2n3 ) ( * Nl4y_11^01 lam2n4 ) ( * Nl4y_11^02 lam2n5 ) ( - ( + 0 Nl4y_11^02 ) ) ) 0 ) ( = ( - ( + 0 ( * Nl4x_12^02 1 ) ) ) 0 ) ) ))
(assert ( or ( and ( >= lam3n0 0 ) ( >= lam3n1 0 ) ( >= lam3n2 0 ) ( >= lam3n3 0 ) ( >= lam3n4 0 ) ( >= lam3n5 0 ) ( >= lam3n6 0 ) ( > ( + ( * 1 lam3n1 ) ( * 1 lam3n2 ) ( * 1 lam3n3 ) ( * 2 lam3n4 ) ( * Nl4CT1 lam3n5 ) ( * Nl4CT2 lam3n6 ) ( - 1 ) ) 0 ) ( = ( + ( * ( - 1 ) lam3n0 ) ( * ( - 1 ) lam3n1 ) ( * ( - 1 ) lam3n4 ) ( * Nl4a_178^01 lam3n5 ) ( * Nl4a_178^02 lam3n6 ) ) 0 ) ( = ( + ( * ( - 1 ) lam3n1 ) ( * ( - 1 ) lam3n2 ) ( * ( - 1 ) lam3n4 ) ( * Nl4len_181^01 lam3n5 ) ( * Nl4len_181^02 lam3n6 ) ) 0 ) ( = ( + ( * 1 lam3n3 ) ( * 1 lam3n4 ) ( * Nl4x_12^01 lam3n5 ) ( * Nl4x_12^02 lam3n6 ) ) 0 ) ( = ( + ( * ( - 1 ) lam3n3 ) ( * ( - 1 ) lam3n4 ) ( * Nl4y_11^01 lam3n5 ) ( * Nl4y_11^02 lam3n6 ) ) 0 ) ) ( and ( >= lam4n0 0 ) ( >= lam4n1 0 ) ( >= lam4n2 0 ) ( >= lam4n3 0 ) ( >= lam4n4 0 ) ( >= lam4n5 0 ) ( >= lam4n6 0 ) ( > ( + ( * 1 lam4n1 ) ( * 1 lam4n2 ) ( * 1 lam4n3 ) ( * 2 lam4n4 ) ( * Nl4CT1 lam4n5 ) ( * Nl4CT2 lam4n6 ) ( - 1 ( + ( + Nl4CT1 ( * Nl4len_181^01 1 ) ) ( * Nl4x_12^01 0 ) ) ) ) 0 ) ( = ( + ( * ( - 1 ) lam4n0 ) ( * ( - 1 ) lam4n1 ) ( * ( - 1 ) lam4n4 ) ( * Nl4a_178^01 lam4n5 ) ( * Nl4a_178^02 lam4n6 ) ( - ( + 0 Nl4a_178^01 ) ) ) 0 ) ( = ( + ( * ( - 1 ) lam4n1 ) ( * ( - 1 ) lam4n2 ) ( * ( - 1 ) lam4n4 ) ( * Nl4len_181^01 lam4n5 ) ( * Nl4len_181^02 lam4n6 ) ( - ( + 0 ( * Nl4len_181^01 1 ) ) ) ) 0 ) ( = ( + ( * 1 lam4n3 ) ( * 1 lam4n4 ) ( * Nl4x_12^01 lam4n5 ) ( * Nl4x_12^02 lam4n6 ) ) 0 ) ( = ( + ( * ( - 1 ) lam4n3 ) ( * ( - 1 ) lam4n4 ) ( * Nl4y_11^01 lam4n5 ) ( * Nl4y_11^02 lam4n6 ) ( - ( + 0 Nl4y_11^01 ) ) ) 0 ) ( = ( - ( + 0 ( * Nl4x_12^01 1 ) ) ) 0 ) ) ))
(assert ( or ( and ( >= lam3n0 0 ) ( >= lam3n1 0 ) ( >= lam3n2 0 ) ( >= lam3n3 0 ) ( >= lam3n4 0 ) ( >= lam3n5 0 ) ( >= lam3n6 0 ) ( > ( + ( * 1 lam3n1 ) ( * 1 lam3n2 ) ( * 1 lam3n3 ) ( * 2 lam3n4 ) ( * Nl4CT1 lam3n5 ) ( * Nl4CT2 lam3n6 ) ( - 1 ) ) 0 ) ( = ( + ( * ( - 1 ) lam3n0 ) ( * ( - 1 ) lam3n1 ) ( * ( - 1 ) lam3n4 ) ( * Nl4a_178^01 lam3n5 ) ( * Nl4a_178^02 lam3n6 ) ) 0 ) ( = ( + ( * ( - 1 ) lam3n1 ) ( * ( - 1 ) lam3n2 ) ( * ( - 1 ) lam3n4 ) ( * Nl4len_181^01 lam3n5 ) ( * Nl4len_181^02 lam3n6 ) ) 0 ) ( = ( + ( * 1 lam3n3 ) ( * 1 lam3n4 ) ( * Nl4x_12^01 lam3n5 ) ( * Nl4x_12^02 lam3n6 ) ) 0 ) ( = ( + ( * ( - 1 ) lam3n3 ) ( * ( - 1 ) lam3n4 ) ( * Nl4y_11^01 lam3n5 ) ( * Nl4y_11^02 lam3n6 ) ) 0 ) ) ( and ( >= lam5n0 0 ) ( >= lam5n1 0 ) ( >= lam5n2 0 ) ( >= lam5n3 0 ) ( >= lam5n4 0 ) ( >= lam5n5 0 ) ( >= lam5n6 0 ) ( > ( + ( * 1 lam5n1 ) ( * 1 lam5n2 ) ( * 1 lam5n3 ) ( * 2 lam5n4 ) ( * Nl4CT1 lam5n5 ) ( * Nl4CT2 lam5n6 ) ( - 1 ( + ( + Nl4CT2 ( * Nl4len_181^02 1 ) ) ( * Nl4x_12^02 0 ) ) ) ) 0 ) ( = ( + ( * ( - 1 ) lam5n0 ) ( * ( - 1 ) lam5n1 ) ( * ( - 1 ) lam5n4 ) ( * Nl4a_178^01 lam5n5 ) ( * Nl4a_178^02 lam5n6 ) ( - ( + 0 Nl4a_178^02 ) ) ) 0 ) ( = ( + ( * ( - 1 ) lam5n1 ) ( * ( - 1 ) lam5n2 ) ( * ( - 1 ) lam5n4 ) ( * Nl4len_181^01 lam5n5 ) ( * Nl4len_181^02 lam5n6 ) ( - ( + 0 ( * Nl4len_181^02 1 ) ) ) ) 0 ) ( = ( + ( * 1 lam5n3 ) ( * 1 lam5n4 ) ( * Nl4x_12^01 lam5n5 ) ( * Nl4x_12^02 lam5n6 ) ) 0 ) ( = ( + ( * ( - 1 ) lam5n3 ) ( * ( - 1 ) lam5n4 ) ( * Nl4y_11^01 lam5n5 ) ( * Nl4y_11^02 lam5n6 ) ( - ( + 0 Nl4y_11^02 ) ) ) 0 ) ( = ( - ( + 0 ( * Nl4x_12^02 1 ) ) ) 0 ) ) ))
(assert ( or ( and ( not ( <= ( + 1 a_178^0 ) 0 ) ) ( <= ( * ( - 1 ) k_121^0 ) 0 ) ( <= ( * ( - 1 ) undef36 ) 0 ) ( <= ( + 1 y_11^0 ( * ( - 1 ) undef11 ) ) 0 ) ( not ( <= ( + y_11^0 ( * ( - 1 ) undef81 ) ) 0 ) ) ( not ( <= ( + ( - 1 ) a_178^0 len_181^0 y_11^0 ( * ( - 1 ) undef81 ) ) 0 ) ) ( = ( + a_10^0 ( * ( - 1 ) undef11 ) ) 0 ) ( = ( + undef32 ( * ( - 1 ) undef43 ) ) 0 ) ( = ( + undef32 ( * ( - 1 ) undef52 ) ) 0 ) ( = ( + undef40 ( * ( - 1 ) undef43 ) ) 0 ) ( = ( + undef46 ( * ( - 1 ) undef53 ) ) 0 ) ( = ( + undef46 ( * ( - 1 ) undef60 ) ) 0 ) ( = ( + undef48 ( * ( - 1 ) undef54 ) ) 0 ) ( = ( + undef48 ( * ( - 1 ) undef61 ) ) 0 ) ( = ( + undef50 ( * ( - 1 ) undef55 ) ) 0 ) ( = ( + undef50 ( * ( - 1 ) undef62 ) ) 0 ) ( = ( + undef53 ( * ( - 1 ) undef63 ) ) 0 ) ( = ( + undef54 ( * ( - 1 ) undef64 ) ) 0 ) ( = ( + undef55 ( * ( - 1 ) undef65 ) ) 0 ) ( = ( + undef56 ( * ( - 1 ) undef63 ) ) 0 ) ( = ( + undef57 ( * ( - 1 ) undef64 ) ) 0 ) ( = ( + undef58 ( * ( - 1 ) undef65 ) ) 0 ) ( = undef59 0 ) ( = ( + ( - 1 ) len_181^0 ) 0 ) ( = ( + ( - 1 ) undef36 ( * ( - 1 ) undef38 ) ) 0 ) ( = ( + ( - 2 ) undef38 ) 0 ) ( <= ( + ( + Nl4CT1 ( * Nl4x_12^01 0 ) ) ( * ( + 0 Nl4a_178^01 ) a_178^0 ) ( * ( + 0 Nl4len_181^01 ) len_181^0 ) ( * ( + 0 Nl4y_11^01 ) y_11^0 ) ( * ( + 0 ( * Nl4x_12^01 1 ) ) undef81 ) ) 0 ) ( <= ( + ( + Nl4CT2 ( * Nl4x_12^02 0 ) ) ( * ( + 0 Nl4a_178^02 ) a_178^0 ) ( * ( + 0 Nl4len_181^02 ) len_181^0 ) ( * ( + 0 Nl4y_11^02 ) y_11^0 ) ( * ( + 0 ( * Nl4x_12^02 1 ) ) undef81 ) ) 0 ) ( <= ( + 1 ( * ( - 1 ) len_181^0 ) ) 0 ) ) ( and ( not ( <= ( + 1 a_178^0 ) 0 ) ) ( <= ( * ( - 1 ) k_121^0 ) 0 ) ( <= ( * ( - 1 ) undef36 ) 0 ) ( <= ( + 1 y_11^0 ( * ( - 1 ) undef11 ) ) 0 ) ( not ( <= ( + ( * ( - 1 ) y_11^0 ) undef81 ) 0 ) ) ( not ( <= ( + ( - 1 ) len_181^0 ( * ( - 1 ) y_11^0 ) undef81 ) 0 ) ) ( = ( + a_10^0 ( * ( - 1 ) undef11 ) ) 0 ) ( = ( + undef32 ( * ( - 1 ) undef43 ) ) 0 ) ( = ( + undef32 ( * ( - 1 ) undef52 ) ) 0 ) ( = ( + undef40 ( * ( - 1 ) undef43 ) ) 0 ) ( = ( + undef46 ( * ( - 1 ) undef53 ) ) 0 ) ( = ( + undef46 ( * ( - 1 ) undef60 ) ) 0 ) ( = ( + undef48 ( * ( - 1 ) undef54 ) ) 0 ) ( = ( + undef48 ( * ( - 1 ) undef61 ) ) 0 ) ( = ( + undef50 ( * ( - 1 ) undef55 ) ) 0 ) ( = ( + undef50 ( * ( - 1 ) undef62 ) ) 0 ) ( = ( + undef53 ( * ( - 1 ) undef63 ) ) 0 ) ( = ( + undef54 ( * ( - 1 ) undef64 ) ) 0 ) ( = ( + undef55 ( * ( - 1 ) undef65 ) ) 0 ) ( = ( + undef56 ( * ( - 1 ) undef63 ) ) 0 ) ( = ( + undef57 ( * ( - 1 ) undef64 ) ) 0 ) ( = ( + undef58 ( * ( - 1 ) undef65 ) ) 0 ) ( = undef59 0 ) ( = ( + ( - 1 ) len_181^0 ) 0 ) ( = ( + ( - 1 ) undef36 ( * ( - 1 ) undef38 ) ) 0 ) ( = ( + ( - 2 ) undef38 ) 0 ) ( <= ( + ( + Nl4CT1 ( * Nl4x_12^01 0 ) ) ( * ( + 0 Nl4a_178^01 ) a_178^0 ) ( * ( + 0 Nl4len_181^01 ) len_181^0 ) ( * ( + 0 Nl4y_11^01 ) y_11^0 ) ( * ( + 0 ( * Nl4x_12^01 1 ) ) undef81 ) ) 0 ) ( <= ( + ( + Nl4CT2 ( * Nl4x_12^02 0 ) ) ( * ( + 0 Nl4a_178^02 ) a_178^0 ) ( * ( + 0 Nl4len_181^02 ) len_181^0 ) ( * ( + 0 Nl4y_11^02 ) y_11^0 ) ( * ( + 0 ( * Nl4x_12^02 1 ) ) undef81 ) ) 0 ) ( <= ( + 1 ( * ( - 1 ) len_181^0 ) ) 0 ) ) ( and ( not ( <= ( + 1 a_178^0 ) 0 ) ) ( <= ( * ( - 1 ) k_121^0 ) 0 ) ( <= ( * ( - 1 ) undef36 ) 0 ) ( <= ( + 1 ( * ( - 1 ) y_11^0 ) undef26 ) 0 ) ( not ( <= ( + y_11^0 ( * ( - 1 ) undef97 ) ) 0 ) ) ( not ( <= ( + ( - 1 ) a_178^0 len_181^0 y_11^0 ( * ( - 1 ) undef97 ) ) 0 ) ) ( = ( + a_10^0 ( * ( - 1 ) undef26 ) ) 0 ) ( = ( + undef32 ( * ( - 1 ) undef43 ) ) 0 ) ( = ( + undef32 ( * ( - 1 ) undef52 ) ) 0 ) ( = ( + undef40 ( * ( - 1 ) undef43 ) ) 0 ) ( = ( + undef46 ( * ( - 1 ) undef53 ) ) 0 ) ( = ( + undef46 ( * ( - 1 ) undef60 ) ) 0 ) ( = ( + undef48 ( * ( - 1 ) undef54 ) ) 0 ) ( = ( + undef48 ( * ( - 1 ) undef61 ) ) 0 ) ( = ( + undef50 ( * ( - 1 ) undef55 ) ) 0 ) ( = ( + undef50 ( * ( - 1 ) undef62 ) ) 0 ) ( = ( + undef53 ( * ( - 1 ) undef63 ) ) 0 ) ( = ( + undef54 ( * ( - 1 ) undef64 ) ) 0 ) ( = ( + undef55 ( * ( - 1 ) undef65 ) ) 0 ) ( = ( + undef56 ( * ( - 1 ) undef63 ) ) 0 ) ( = ( + undef57 ( * ( - 1 ) undef64 ) ) 0 ) ( = ( + undef58 ( * ( - 1 ) undef65 ) ) 0 ) ( = undef59 0 ) ( = ( + ( - 1 ) len_181^0 ) 0 ) ( = ( + ( - 1 ) undef36 ( * ( - 1 ) undef38 ) ) 0 ) ( = ( + ( - 2 ) undef38 ) 0 ) ( <= ( + ( + Nl4CT1 ( * Nl4x_12^01 0 ) ) ( * ( + 0 Nl4a_178^01 ) a_178^0 ) ( * ( + 0 Nl4len_181^01 ) len_181^0 ) ( * ( + 0 Nl4y_11^01 ) y_11^0 ) ( * ( + 0 ( * Nl4x_12^01 1 ) ) undef97 ) ) 0 ) ( <= ( + ( + Nl4CT2 ( * Nl4x_12^02 0 ) ) ( * ( + 0 Nl4a_178^02 ) a_178^0 ) ( * ( + 0 Nl4len_181^02 ) len_181^0 ) ( * ( + 0 Nl4y_11^02 ) y_11^0 ) ( * ( + 0 ( * Nl4x_12^02 1 ) ) undef97 ) ) 0 ) ( <= ( + 1 ( * ( - 1 ) len_181^0 ) ) 0 ) ) ( and ( not ( <= ( + 1 a_178^0 ) 0 ) ) ( <= ( * ( - 1 ) k_121^0 ) 0 ) ( <= ( * ( - 1 ) undef36 ) 0 ) ( not ( <= ( + ( * ( - 1 ) y_11^0 ) undef97 ) 0 ) ) ( <= ( + 1 ( * ( - 1 ) y_11^0 ) undef26 ) 0 ) ( not ( <= ( + ( - 1 ) len_181^0 ( * ( - 1 ) y_11^0 ) undef97 ) 0 ) ) ( = ( + a_10^0 ( * ( - 1 ) undef26 ) ) 0 ) ( = ( + undef32 ( * ( - 1 ) undef43 ) ) 0 ) ( = ( + undef32 ( * ( - 1 ) undef52 ) ) 0 ) ( = ( + undef40 ( * ( - 1 ) undef43 ) ) 0 ) ( = ( + undef46 ( * ( - 1 ) undef53 ) ) 0 ) ( = ( + undef46 ( * ( - 1 ) undef60 ) ) 0 ) ( = ( + undef48 ( * ( - 1 ) undef54 ) ) 0 ) ( = ( + undef48 ( * ( - 1 ) undef61 ) ) 0 ) ( = ( + undef50 ( * ( - 1 ) undef55 ) ) 0 ) ( = ( + undef50 ( * ( - 1 ) undef62 ) ) 0 ) ( = ( + undef53 ( * ( - 1 ) undef63 ) ) 0 ) ( = ( + undef54 ( * ( - 1 ) undef64 ) ) 0 ) ( = ( + undef55 ( * ( - 1 ) undef65 ) ) 0 ) ( = ( + undef56 ( * ( - 1 ) undef63 ) ) 0 ) ( = ( + undef57 ( * ( - 1 ) undef64 ) ) 0 ) ( = ( + undef58 ( * ( - 1 ) undef65 ) ) 0 ) ( = undef59 0 ) ( = ( + ( - 1 ) len_181^0 ) 0 ) ( = ( + ( - 1 ) undef36 ( * ( - 1 ) undef38 ) ) 0 ) ( = ( + ( - 2 ) undef38 ) 0 ) ( <= ( + ( + Nl4CT1 ( * Nl4x_12^01 0 ) ) ( * ( + 0 Nl4a_178^01 ) a_178^0 ) ( * ( + 0 Nl4len_181^01 ) len_181^0 ) ( * ( + 0 Nl4y_11^01 ) y_11^0 ) ( * ( + 0 ( * Nl4x_12^01 1 ) ) undef97 ) ) 0 ) ( <= ( + ( + Nl4CT2 ( * Nl4x_12^02 0 ) ) ( * ( + 0 Nl4a_178^02 ) a_178^0 ) ( * ( + 0 Nl4len_181^02 ) len_181^0 ) ( * ( + 0 Nl4y_11^02 ) y_11^0 ) ( * ( + 0 ( * Nl4x_12^02 1 ) ) undef97 ) ) 0 ) ( <= ( + 1 ( * ( - 1 ) len_181^0 ) ) 0 ) ) ))
(assert ( or ( and ( and ( and ( >= lam17n0 0 ) ( >= lam17n1 0 ) ( >= lam17n2 0 ) ( >= lam17n3 0 ) ( >= lam17n4 0 ) ( >= lam17n5 0 ) ( >= lam17n6 0 ) ( > ( + ( * 1 lam17n1 ) ( * 2 lam17n2 ) ( * 50001 lam17n3 ) ( * 50001 lam17n4 ) ( * Nl4CT1 lam17n5 ) ( * Nl4CT2 lam17n6 ) ( - 1 ( - ( + ( + RFN1_CT ( * RFN1_len_181^0 1 ) ) ( * RFN1_x_12^0 0 ) ) RFN1_CT ) ) ) 0 ) ( = ( + ( * ( - 1 ) lam17n0 ) ( * 1 lam17n3 ) ( * Nl4a_178^01 lam17n5 ) ( * Nl4a_178^02 lam17n6 ) ( - ( - ( + 0 RFN1_a_178^0 ) RFN1_a_178^0 ) ) ) 0 ) ( = ( + ( * ( - 1 ) lam17n2 ) ( * ( - 1 ) lam17n3 ) ( * ( - 1 ) lam17n4 ) ( * Nl4len_181^01 lam17n5 ) ( * Nl4len_181^02 lam17n6 ) ( - ( - ( + 0 ( * RFN1_len_181^0 1 ) ) RFN1_len_181^0 ) ) ) 0 ) ( = ( + ( * ( - 1 ) lam17n1 ) ( * ( - 1 ) lam17n2 ) ( * Nl4x_12^01 lam17n5 ) ( * Nl4x_12^02 lam17n6 ) ( - ( - RFN1_x_12^0 ) ) ) 0 ) ( = ( + ( * 1 lam17n1 ) ( * 1 lam17n2 ) ( * 1 lam17n3 ) ( * Nl4y_11^01 lam17n5 ) ( * Nl4y_11^02 lam17n6 ) ( - ( - ( + 0 RFN1_y_11^0 ) RFN1_y_11^0 ) ) ) 0 ) ( = ( - ( + 0 ( * RFN1_x_12^0 1 ) ) ) 0 ) ) ( and ( >= lam21n0 0 ) ( >= lam21n1 0 ) ( >= lam21n2 0 ) ( >= lam21n3 0 ) ( >= lam21n4 0 ) ( >= lam21n5 0 ) ( >= lam21n6 0 ) ( >= lam21n7 0 ) ( > ( + ( * 1 lam21n1 ) ( * 1 lam21n2 ) ( * 2 lam21n3 ) ( * 50001 lam21n4 ) ( * 50001 lam21n5 ) ( * Nl4CT1 lam21n6 ) ( * Nl4CT2 lam21n7 ) ( - 1 ( - ( + ( + RFN1_CT ( * RFN1_len_181^0 1 ) ) ( * RFN1_x_12^0 0 ) ) RFN1_CT ) ) ) 0 ) ( = ( + ( * ( - 1 ) lam21n0 ) ( * ( - 1 ) lam21n1 ) ( * ( - 1 ) lam21n3 ) ( * 1 lam21n4 ) ( * Nl4a_178^01 lam21n6 ) ( * Nl4a_178^02 lam21n7 ) ( - ( - ( + 0 RFN1_a_178^0 ) RFN1_a_178^0 ) ) ) 0 ) ( = ( + ( * ( - 1 ) lam21n1 ) ( * ( - 1 ) lam21n3 ) ( * ( - 1 ) lam21n4 ) ( * ( - 1 ) lam21n5 ) ( * Nl4len_181^01 lam21n6 ) ( * Nl4len_181^02 lam21n7 ) ( - ( - ( + 0 ( * RFN1_len_181^0 1 ) ) RFN1_len_181^0 ) ) ) 0 ) ( = ( + ( * 1 lam21n2 ) ( * 1 lam21n3 ) ( * Nl4x_12^01 lam21n6 ) ( * Nl4x_12^02 lam21n7 ) ( - ( - RFN1_x_12^0 ) ) ) 0 ) ( = ( + ( * ( - 1 ) lam21n2 ) ( * ( - 1 ) lam21n3 ) ( * 1 lam21n4 ) ( * Nl4y_11^01 lam21n6 ) ( * Nl4y_11^02 lam21n7 ) ( - ( - ( + 0 RFN1_y_11^0 ) RFN1_y_11^0 ) ) ) 0 ) ( = ( - ( + 0 ( * RFN1_x_12^0 1 ) ) ) 0 ) ) ) ( or ( and ( and ( >= lam15n0 0 ) ( >= lam15n1 0 ) ( >= lam15n2 0 ) ( >= lam15n3 0 ) ( >= lam15n4 0 ) ( >= lam15n5 0 ) ( >= lam15n6 0 ) ( > ( + ( * 1 lam15n1 ) ( * 2 lam15n2 ) ( * 50001 lam15n3 ) ( * 50001 lam15n4 ) ( * Nl4CT1 lam15n5 ) ( * Nl4CT2 lam15n6 ) ( - 1 ( - RFN1_CT ) ) ) 0 ) ( = ( + ( * ( - 1 ) lam15n0 ) ( * 1 lam15n3 ) ( * Nl4a_178^01 lam15n5 ) ( * Nl4a_178^02 lam15n6 ) ( - ( - RFN1_a_178^0 ) ) ) 0 ) ( = ( + ( * ( - 1 ) lam15n2 ) ( * ( - 1 ) lam15n3 ) ( * ( - 1 ) lam15n4 ) ( * Nl4len_181^01 lam15n5 ) ( * Nl4len_181^02 lam15n6 ) ( - ( - RFN1_len_181^0 ) ) ) 0 ) ( = ( + ( * ( - 1 ) lam15n1 ) ( * ( - 1 ) lam15n2 ) ( * Nl4x_12^01 lam15n5 ) ( * Nl4x_12^02 lam15n6 ) ( - ( - RFN1_x_12^0 ) ) ) 0 ) ( = ( + ( * 1 lam15n1 ) ( * 1 lam15n2 ) ( * 1 lam15n3 ) ( * Nl4y_11^01 lam15n5 ) ( * Nl4y_11^02 lam15n6 ) ( - ( - RFN1_y_11^0 ) ) ) 0 ) ) ( and ( >= lam16n0 0 ) ( >= lam16n1 0 ) ( >= lam16n2 0 ) ( >= lam16n3 0 ) ( >= lam16n4 0 ) ( >= lam16n5 0 ) ( >= lam16n6 0 ) ( > ( + ( * 1 lam16n1 ) ( * 2 lam16n2 ) ( * 50001 lam16n3 ) ( * 50001 lam16n4 ) ( * Nl4CT1 lam16n5 ) ( * Nl4CT2 lam16n6 ) ( - 1 ( + ( - ( + ( + RFN1_CT ( * RFN1_len_181^0 1 ) ) ( * RFN1_x_12^0 0 ) ) RFN1_CT ) 1 ) ) ) 0 ) ( = ( + ( * ( - 1 ) lam16n0 ) ( * 1 lam16n3 ) ( * Nl4a_178^01 lam16n5 ) ( * Nl4a_178^02 lam16n6 ) ( - ( - ( + 0 RFN1_a_178^0 ) RFN1_a_178^0 ) ) ) 0 ) ( = ( + ( * ( - 1 ) lam16n2 ) ( * ( - 1 ) lam16n3 ) ( * ( - 1 ) lam16n4 ) ( * Nl4len_181^01 lam16n5 ) ( * Nl4len_181^02 lam16n6 ) ( - ( - ( + 0 ( * RFN1_len_181^0 1 ) ) RFN1_len_181^0 ) ) ) 0 ) ( = ( + ( * ( - 1 ) lam16n1 ) ( * ( - 1 ) lam16n2 ) ( * Nl4x_12^01 lam16n5 ) ( * Nl4x_12^02 lam16n6 ) ( - ( - RFN1_x_12^0 ) ) ) 0 ) ( = ( + ( * 1 lam16n1 ) ( * 1 lam16n2 ) ( * 1 lam16n3 ) ( * Nl4y_11^01 lam16n5 ) ( * Nl4y_11^02 lam16n6 ) ( - ( - ( + 0 RFN1_y_11^0 ) RFN1_y_11^0 ) ) ) 0 ) ( = ( - ( + 0 ( * RFN1_x_12^0 1 ) ) ) 0 ) ) ) ( and ( and ( >= lam19n0 0 ) ( >= lam19n1 0 ) ( >= lam19n2 0 ) ( >= lam19n3 0 ) ( >= lam19n4 0 ) ( >= lam19n5 0 ) ( >= lam19n6 0 ) ( >= lam19n7 0 ) ( > ( + ( * 1 lam19n1 ) ( * 1 lam19n2 ) ( * 2 lam19n3 ) ( * 50001 lam19n4 ) ( * 50001 lam19n5 ) ( * Nl4CT1 lam19n6 ) ( * Nl4CT2 lam19n7 ) ( - 1 ( - RFN1_CT ) ) ) 0 ) ( = ( + ( * ( - 1 ) lam19n0 ) ( * ( - 1 ) lam19n1 ) ( * ( - 1 ) lam19n3 ) ( * 1 lam19n4 ) ( * Nl4a_178^01 lam19n6 ) ( * Nl4a_178^02 lam19n7 ) ( - ( - RFN1_a_178^0 ) ) ) 0 ) ( = ( + ( * ( - 1 ) lam19n1 ) ( * ( - 1 ) lam19n3 ) ( * ( - 1 ) lam19n4 ) ( * ( - 1 ) lam19n5 ) ( * Nl4len_181^01 lam19n6 ) ( * Nl4len_181^02 lam19n7 ) ( - ( - RFN1_len_181^0 ) ) ) 0 ) ( = ( + ( * 1 lam19n2 ) ( * 1 lam19n3 ) ( * Nl4x_12^01 lam19n6 ) ( * Nl4x_12^02 lam19n7 ) ( - ( - RFN1_x_12^0 ) ) ) 0 ) ( = ( + ( * ( - 1 ) lam19n2 ) ( * ( - 1 ) lam19n3 ) ( * 1 lam19n4 ) ( * Nl4y_11^01 lam19n6 ) ( * Nl4y_11^02 lam19n7 ) ( - ( - RFN1_y_11^0 ) ) ) 0 ) ) ( and ( >= lam20n0 0 ) ( >= lam20n1 0 ) ( >= lam20n2 0 ) ( >= lam20n3 0 ) ( >= lam20n4 0 ) ( >= lam20n5 0 ) ( >= lam20n6 0 ) ( >= lam20n7 0 ) ( > ( + ( * 1 lam20n1 ) ( * 1 lam20n2 ) ( * 2 lam20n3 ) ( * 50001 lam20n4 ) ( * 50001 lam20n5 ) ( * Nl4CT1 lam20n6 ) ( * Nl4CT2 lam20n7 ) ( - 1 ( + ( - ( + ( + RFN1_CT ( * RFN1_len_181^0 1 ) ) ( * RFN1_x_12^0 0 ) ) RFN1_CT ) 1 ) ) ) 0 ) ( = ( + ( * ( - 1 ) lam20n0 ) ( * ( - 1 ) lam20n1 ) ( * ( - 1 ) lam20n3 ) ( * 1 lam20n4 ) ( * Nl4a_178^01 lam20n6 ) ( * Nl4a_178^02 lam20n7 ) ( - ( - ( + 0 RFN1_a_178^0 ) RFN1_a_178^0 ) ) ) 0 ) ( = ( + ( * ( - 1 ) lam20n1 ) ( * ( - 1 ) lam20n3 ) ( * ( - 1 ) lam20n4 ) ( * ( - 1 ) lam20n5 ) ( * Nl4len_181^01 lam20n6 ) ( * Nl4len_181^02 lam20n7 ) ( - ( - ( + 0 ( * RFN1_len_181^0 1 ) ) RFN1_len_181^0 ) ) ) 0 ) ( = ( + ( * 1 lam20n2 ) ( * 1 lam20n3 ) ( * Nl4x_12^01 lam20n6 ) ( * Nl4x_12^02 lam20n7 ) ( - ( - RFN1_x_12^0 ) ) ) 0 ) ( = ( + ( * ( - 1 ) lam20n2 ) ( * ( - 1 ) lam20n3 ) ( * 1 lam20n4 ) ( * Nl4y_11^01 lam20n6 ) ( * Nl4y_11^02 lam20n7 ) ( - ( - ( + 0 RFN1_y_11^0 ) RFN1_y_11^0 ) ) ) 0 ) ( = ( - ( + 0 ( * RFN1_x_12^0 1 ) ) ) 0 ) ) ) ) ) ( or ( and ( >= lam14n0 0 ) ( >= lam14n1 0 ) ( >= lam14n2 0 ) ( >= lam14n3 0 ) ( >= lam14n4 0 ) ( >= lam14n5 0 ) ( >= lam14n6 0 ) ( > ( + ( * 1 lam14n1 ) ( * 2 lam14n2 ) ( * 50001 lam14n3 ) ( * 50001 lam14n4 ) ( * Nl4CT1 lam14n5 ) ( * Nl4CT2 lam14n6 ) ( - 1 ) ) 0 ) ( = ( + ( * ( - 1 ) lam14n0 ) ( * 1 lam14n3 ) ( * Nl4a_178^01 lam14n5 ) ( * Nl4a_178^02 lam14n6 ) ) 0 ) ( = ( + ( * ( - 1 ) lam14n2 ) ( * ( - 1 ) lam14n3 ) ( * ( - 1 ) lam14n4 ) ( * Nl4len_181^01 lam14n5 ) ( * Nl4len_181^02 lam14n6 ) ) 0 ) ( = ( + ( * ( - 1 ) lam14n1 ) ( * ( - 1 ) lam14n2 ) ( * Nl4x_12^01 lam14n5 ) ( * Nl4x_12^02 lam14n6 ) ) 0 ) ( = ( + ( * 1 lam14n1 ) ( * 1 lam14n2 ) ( * 1 lam14n3 ) ( * Nl4y_11^01 lam14n5 ) ( * Nl4y_11^02 lam14n6 ) ) 0 ) ) ( and ( >= lam18n0 0 ) ( >= lam18n1 0 ) ( >= lam18n2 0 ) ( >= lam18n3 0 ) ( >= lam18n4 0 ) ( >= lam18n5 0 ) ( >= lam18n6 0 ) ( >= lam18n7 0 ) ( > ( + ( * 1 lam18n1 ) ( * 1 lam18n2 ) ( * 2 lam18n3 ) ( * 50001 lam18n4 ) ( * 50001 lam18n5 ) ( * Nl4CT1 lam18n6 ) ( * Nl4CT2 lam18n7 ) ( - 1 ) ) 0 ) ( = ( + ( * ( - 1 ) lam18n0 ) ( * ( - 1 ) lam18n1 ) ( * ( - 1 ) lam18n3 ) ( * 1 lam18n4 ) ( * Nl4a_178^01 lam18n6 ) ( * Nl4a_178^02 lam18n7 ) ) 0 ) ( = ( + ( * ( - 1 ) lam18n1 ) ( * ( - 1 ) lam18n3 ) ( * ( - 1 ) lam18n4 ) ( * ( - 1 ) lam18n5 ) ( * Nl4len_181^01 lam18n6 ) ( * Nl4len_181^02 lam18n7 ) ) 0 ) ( = ( + ( * 1 lam18n2 ) ( * 1 lam18n3 ) ( * Nl4x_12^01 lam18n6 ) ( * Nl4x_12^02 lam18n7 ) ) 0 ) ( = ( + ( * ( - 1 ) lam18n2 ) ( * ( - 1 ) lam18n3 ) ( * 1 lam18n4 ) ( * Nl4y_11^01 lam18n6 ) ( * Nl4y_11^02 lam18n7 ) ) 0 ) ) ) ))
(check-sat)
(exit)
